1.0, 249254
0.95, 229213
0.9, 216094
0.85, 196931
0.8, 186639
0.75, 170008
0.7, 158003
0.65, 145961
0.6, 137243
0.55, 119729
0.5, 114846
0.45, 103486
0.4, 91148
0.35, 80029
0.3, 68064
0.25, 56720
0.2, 45376
0.15, 34032
0.1, 22688
0.05, 11344
